c Random generated cnf formula, satisfiable: false
p cnf 10 50
4 -5 9 0
8 -5 2 0
8 7 -9 0
9 -3 1 0
-8 9 10 0
10 1 3 0
-9 7 -4 0
-4 -6 -3 0
-4 1 2 0
8 1 -2 0
-2 -5 3 0
7 8 -3 0
-2 6 -8 0
-8 -3 -1 0
-4 1 -7 0
-1 2 -6 0
-10 -3 6 0
6 -5 -10 0
6 8 -7 0
4 -8 6 0
-7 5 -8 0
-3 -10 2 0
-10 -2 7 0
10 7 9 0
10 1 -2 0
4 5 2 0
7 2 -4 0
1 -7 -8 0
-6 -10 8 0
8 3 -1 0
7 4 -10 0
-8 -2 -6 0
-2 -5 -8 0
-5 4 6 0
5 8 -9 0
1 -9 2 0
-3 1 -8 0
-1 3 4 0
-8 10 7 0
5 -4 1 0
-10 -6 -9 0
-10 1 3 0
-4 8 -5 0
-9 -5 6 0
1 -7 -8 0
-4 -1 -10 0
1 -10 4 0
-1 4 10 0
3 4 6 0
3 1 -8 0
